instances/shortest_path/discrete_knapsack_uncertainty/nohadani_6_12.lp
\ Model nohadani_6_12
\ LP format - for model browsing. Use MPS format to capture full model detail.
\ Signature: 0x9d6f60db6d04e09d
Minimize
  21.02379604162864 y[0,1] + 79.63039620647382 y[0,2]
   + 32.2490309931942 y[0,3] + 18.68154169226941 y[0,5]
   + 21.02379604162864 y[1,0] + 59.03388857258177 y[1,2]
   + 11.40175425099138 y[1,3] + 78.56844150166147 y[1,4]
   + 30.4138126514911 y[1,5] + 79.63039620647382 y[2,0]
   + 59.03388857258177 y[2,1] + 47.63402145525821 y[2,3] + 20 y[2,4]
   + 32.2490309931942 y[3,0] + 11.40175425099138 y[3,1]
   + 47.63402145525821 y[3,2] + 67.20863039818622 y[3,4]
   + 41.04875150354759 y[3,5] + 78.56844150166147 y[4,1] + 20 y[4,2]
   + 67.20863039818622 y[4,3] + 18.68154169226941 y[5,0]
   + 30.4138126514911 y[5,1] + 41.04875150354759 y[5,3] + x[0,1] + x[0,2]
   + x[0,3] + x[0,5] + x[1,0] + x[1,2] + x[1,3] + x[1,4] + x[1,5] + x[2,0]
   + x[2,1] + x[2,3] + x[2,4] + x[3,0] + x[3,1] + x[3,2] + x[3,4] + x[3,5]
   + x[4,1] + x[4,2] + x[4,3] + x[5,0] + x[5,1] + x[5,3]
   + 2.102379604162864 r[0,1] + 7.963039620647383 r[0,2]
   + 3.22490309931942 r[0,3] + 1.868154169226941 r[0,5]
   + 2.102379604162864 r[1,0] + 5.903388857258177 r[1,2]
   + 1.140175425099138 r[1,3] + 7.856844150166147 r[1,4]
   + 3.04138126514911 r[1,5] + 7.963039620647383 r[2,0]
   + 5.903388857258177 r[2,1] + 4.763402145525822 r[2,3] + 2 r[2,4]
   + 3.22490309931942 r[3,0] + 1.140175425099138 r[3,1]
   + 4.763402145525822 r[3,2] + 6.720863039818622 r[3,4]
   + 4.104875150354759 r[3,5] + 7.856844150166147 r[4,1] + 2 r[4,2]
   + 6.720863039818622 r[4,3] + 1.868154169226941 r[5,0]
   + 3.04138126514911 r[5,1] + 4.104875150354759 r[5,3]
Subject To
 flow_cons_inner_nodes[0]: - y[0,1] - y[0,2] - y[0,3] - y[0,5] + y[1,0]
   + y[2,0] + y[3,0] + y[5,0] = 0
 flow_cons_inner_nodes[1]: y[0,1] - y[1,0] - y[1,2] - y[1,3] - y[1,4]
   - y[1,5] + y[2,1] + y[3,1] + y[4,1] + y[5,1] = 0
 flow_cons_inner_nodes[2]: y[0,2] + y[1,2] - y[2,0] - y[2,1] - y[2,3]
   - y[2,4] + y[3,2] + y[4,2] = 0
 flow_cons_inner_nodes[3]: y[0,3] + y[1,3] + y[2,3] - y[3,0] - y[3,1]
   - y[3,2] - y[3,4] - y[3,5] + y[4,3] + y[5,3] = 0
 flow_cons_source: - y[1,4] - y[2,4] - y[3,4] + y[4,1] + y[4,2] + y[4,3]
   = 1
 flow_cons_target: y[0,5] + y[1,5] + y[3,5] - y[5,0] - y[5,1] - y[5,3] = 1
 primal_lower: 1.563479275310738 x[0,1] + 1.017685660203607 x[0,2]
   + 1.994505132044346 x[0,3] + 4.117234881390026 x[0,5]
   + 4.346982890813209 x[1,0] + 4.738245401894136 x[1,2]
   + 0.2503706938943362 x[1,3] + 0.5776861674003281 x[1,4]
   + 2.044340385239027 x[1,5] + 1.673568436939825 x[2,0]
   + 4.885151258862797 x[2,1] + 1.031254835087988 x[2,3]
   + 3.913420901638904 x[2,4] + 4.497138256899606 x[3,0]
   + 1.683923170820753 x[3,1] + 0.1045306904396787 x[3,2]
   + 4.290938827965834 x[3,4] + 2.073061240986167 x[3,5]
   + 0.4853375624474798 x[4,1] + 4.427746526102033 x[4,2]
   + 1.798775171243646 x[4,3] + 3.713787266604378 x[5,0]
   + 4.897100984565633 x[5,1] + 0.4739483535103312 x[5,3] + 34 u[0,1]
   + 38 u[0,2] + 72 u[0,3] + 21 u[0,5] + 62 u[1,0] + 36 u[1,2] + 31 u[1,3]
   + 90 u[1,4] + 99 u[1,5] + 100 u[2,0] + 22 u[2,1] + u[2,3] + 2 u[2,4]
   + 58 u[3,0] + 91 u[3,1] + 71 u[3,2] + 15 u[3,4] + 54 u[3,5] + 99 u[4,1]
   + 88 u[4,2] + 31 u[4,3] + 46 u[5,0] + 82 u[5,1] + 81 u[5,3] <= 120
 mccormick1[0,1]: - u[0,1] + r[0,1] <= 0
 mccormick1[0,2]: - u[0,2] + r[0,2] <= 0
 mccormick1[0,3]: - u[0,3] + r[0,3] <= 0
 mccormick1[0,5]: - u[0,5] + r[0,5] <= 0
 mccormick1[1,0]: - u[1,0] + r[1,0] <= 0
 mccormick1[1,2]: - u[1,2] + r[1,2] <= 0
 mccormick1[1,3]: - u[1,3] + r[1,3] <= 0
 mccormick1[1,4]: - u[1,4] + r[1,4] <= 0
 mccormick1[1,5]: - u[1,5] + r[1,5] <= 0
 mccormick1[2,0]: - u[2,0] + r[2,0] <= 0
 mccormick1[2,1]: - u[2,1] + r[2,1] <= 0
 mccormick1[2,3]: - u[2,3] + r[2,3] <= 0
 mccormick1[2,4]: - u[2,4] + r[2,4] <= 0
 mccormick1[3,0]: - u[3,0] + r[3,0] <= 0
 mccormick1[3,1]: - u[3,1] + r[3,1] <= 0
 mccormick1[3,2]: - u[3,2] + r[3,2] <= 0
 mccormick1[3,4]: - u[3,4] + r[3,4] <= 0
 mccormick1[3,5]: - u[3,5] + r[3,5] <= 0
 mccormick1[4,1]: - u[4,1] + r[4,1] <= 0
 mccormick1[4,2]: - u[4,2] + r[4,2] <= 0
 mccormick1[4,3]: - u[4,3] + r[4,3] <= 0
 mccormick1[5,0]: - u[5,0] + r[5,0] <= 0
 mccormick1[5,1]: - u[5,1] + r[5,1] <= 0
 mccormick1[5,3]: - u[5,3] + r[5,3] <= 0
 mccormick2[0,1]: - y[0,1] + r[0,1] <= 0
 mccormick2[0,2]: - y[0,2] + r[0,2] <= 0
 mccormick2[0,3]: - y[0,3] + r[0,3] <= 0
 mccormick2[0,5]: - y[0,5] + r[0,5] <= 0
 mccormick2[1,0]: - y[1,0] + r[1,0] <= 0
 mccormick2[1,2]: - y[1,2] + r[1,2] <= 0
 mccormick2[1,3]: - y[1,3] + r[1,3] <= 0
 mccormick2[1,4]: - y[1,4] + r[1,4] <= 0
 mccormick2[1,5]: - y[1,5] + r[1,5] <= 0
 mccormick2[2,0]: - y[2,0] + r[2,0] <= 0
 mccormick2[2,1]: - y[2,1] + r[2,1] <= 0
 mccormick2[2,3]: - y[2,3] + r[2,3] <= 0
 mccormick2[2,4]: - y[2,4] + r[2,4] <= 0
 mccormick2[3,0]: - y[3,0] + r[3,0] <= 0
 mccormick2[3,1]: - y[3,1] + r[3,1] <= 0
 mccormick2[3,2]: - y[3,2] + r[3,2] <= 0
 mccormick2[3,4]: - y[3,4] + r[3,4] <= 0
 mccormick2[3,5]: - y[3,5] + r[3,5] <= 0
 mccormick2[4,1]: - y[4,1] + r[4,1] <= 0
 mccormick2[4,2]: - y[4,2] + r[4,2] <= 0
 mccormick2[4,3]: - y[4,3] + r[4,3] <= 0
 mccormick2[5,0]: - y[5,0] + r[5,0] <= 0
 mccormick2[5,1]: - y[5,1] + r[5,1] <= 0
 mccormick2[5,3]: - y[5,3] + r[5,3] <= 0
 mccormick3[0,1]: - y[0,1] - u[0,1] + r[0,1] >= -1
 mccormick3[0,2]: - y[0,2] - u[0,2] + r[0,2] >= -1
 mccormick3[0,3]: - y[0,3] - u[0,3] + r[0,3] >= -1
 mccormick3[0,5]: - y[0,5] - u[0,5] + r[0,5] >= -1
 mccormick3[1,0]: - y[1,0] - u[1,0] + r[1,0] >= -1
 mccormick3[1,2]: - y[1,2] - u[1,2] + r[1,2] >= -1
 mccormick3[1,3]: - y[1,3] - u[1,3] + r[1,3] >= -1
 mccormick3[1,4]: - y[1,4] - u[1,4] + r[1,4] >= -1
 mccormick3[1,5]: - y[1,5] - u[1,5] + r[1,5] >= -1
 mccormick3[2,0]: - y[2,0] - u[2,0] + r[2,0] >= -1
 mccormick3[2,1]: - y[2,1] - u[2,1] + r[2,1] >= -1
 mccormick3[2,3]: - y[2,3] - u[2,3] + r[2,3] >= -1
 mccormick3[2,4]: - y[2,4] - u[2,4] + r[2,4] >= -1
 mccormick3[3,0]: - y[3,0] - u[3,0] + r[3,0] >= -1
 mccormick3[3,1]: - y[3,1] - u[3,1] + r[3,1] >= -1
 mccormick3[3,2]: - y[3,2] - u[3,2] + r[3,2] >= -1
 mccormick3[3,4]: - y[3,4] - u[3,4] + r[3,4] >= -1
 mccormick3[3,5]: - y[3,5] - u[3,5] + r[3,5] >= -1
 mccormick3[4,1]: - y[4,1] - u[4,1] + r[4,1] >= -1
 mccormick3[4,2]: - y[4,2] - u[4,2] + r[4,2] >= -1
 mccormick3[4,3]: - y[4,3] - u[4,3] + r[4,3] >= -1
 mccormick3[5,0]: - y[5,0] - u[5,0] + r[5,0] >= -1
 mccormick3[5,1]: - y[5,1] - u[5,1] + r[5,1] >= -1
 mccormick3[5,3]: - y[5,3] - u[5,3] + r[5,3] >= -1
Bounds
Binaries
 y[0,1] y[0,2] y[0,3] y[0,5] y[1,0] y[1,2] y[1,3] y[1,4] y[1,5] y[2,0]
 y[2,1] y[2,3] y[2,4] y[3,0] y[3,1] y[3,2] y[3,4] y[3,5] y[4,1] y[4,2]
 y[4,3] y[5,0] y[5,1] y[5,3] x[0,1] x[0,2] x[0,3] x[0,5] x[1,0] x[1,2]
 x[1,3] x[1,4] x[1,5] x[2,0] x[2,1] x[2,3] x[2,4] x[3,0] x[3,1] x[3,2]
 x[3,4] x[3,5] x[4,1] x[4,2] x[4,3] x[5,0] x[5,1] x[5,3] u[0,1] u[0,2]
 u[0,3] u[0,5] u[1,0] u[1,2] u[1,3] u[1,4] u[1,5] u[2,0] u[2,1] u[2,3]
 u[2,4] u[3,0] u[3,1] u[3,2] u[3,4] u[3,5] u[4,1] u[4,2] u[4,3] u[5,0]
 u[5,1] u[5,3] r[0,1] r[0,2] r[0,3] r[0,5] r[1,0] r[1,2] r[1,3] r[1,4]
 r[1,5] r[2,0] r[2,1] r[2,3] r[2,4] r[3,0] r[3,1] r[3,2] r[3,4] r[3,5]
 r[4,1] r[4,2] r[4,3] r[5,0] r[5,1] r[5,3]
End
