instances/shortest_path/discrete_knapsack_uncertainty/nohadani_6_12.mps
* Signature: 0x9d6f60db6d04e09d
NAME nohadani_6_12
ROWS
 N  OBJ
 E  flow_cons_inner_nodes[0]
 E  flow_cons_inner_nodes[1]
 E  flow_cons_inner_nodes[2]
 E  flow_cons_inner_nodes[3]
 E  flow_cons_source
 E  flow_cons_target
 L  primal_lower
 L  mccormick1[0,1]
 L  mccormick1[0,2]
 L  mccormick1[0,3]
 L  mccormick1[0,5]
 L  mccormick1[1,0]
 L  mccormick1[1,2]
 L  mccormick1[1,3]
 L  mccormick1[1,4]
 L  mccormick1[1,5]
 L  mccormick1[2,0]
 L  mccormick1[2,1]
 L  mccormick1[2,3]
 L  mccormick1[2,4]
 L  mccormick1[3,0]
 L  mccormick1[3,1]
 L  mccormick1[3,2]
 L  mccormick1[3,4]
 L  mccormick1[3,5]
 L  mccormick1[4,1]
 L  mccormick1[4,2]
 L  mccormick1[4,3]
 L  mccormick1[5,0]
 L  mccormick1[5,1]
 L  mccormick1[5,3]
 L  mccormick2[0,1]
 L  mccormick2[0,2]
 L  mccormick2[0,3]
 L  mccormick2[0,5]
 L  mccormick2[1,0]
 L  mccormick2[1,2]
 L  mccormick2[1,3]
 L  mccormick2[1,4]
 L  mccormick2[1,5]
 L  mccormick2[2,0]
 L  mccormick2[2,1]
 L  mccormick2[2,3]
 L  mccormick2[2,4]
 L  mccormick2[3,0]
 L  mccormick2[3,1]
 L  mccormick2[3,2]
 L  mccormick2[3,4]
 L  mccormick2[3,5]
 L  mccormick2[4,1]
 L  mccormick2[4,2]
 L  mccormick2[4,3]
 L  mccormick2[5,0]
 L  mccormick2[5,1]
 L  mccormick2[5,3]
 G  mccormick3[0,1]
 G  mccormick3[0,2]
 G  mccormick3[0,3]
 G  mccormick3[0,5]
 G  mccormick3[1,0]
 G  mccormick3[1,2]
 G  mccormick3[1,3]
 G  mccormick3[1,4]
 G  mccormick3[1,5]
 G  mccormick3[2,0]
 G  mccormick3[2,1]
 G  mccormick3[2,3]
 G  mccormick3[2,4]
 G  mccormick3[3,0]
 G  mccormick3[3,1]
 G  mccormick3[3,2]
 G  mccormick3[3,4]
 G  mccormick3[3,5]
 G  mccormick3[4,1]
 G  mccormick3[4,2]
 G  mccormick3[4,3]
 G  mccormick3[5,0]
 G  mccormick3[5,1]
 G  mccormick3[5,3]
COLUMNS
    MARKER    'MARKER'                 'INTORG'
    y[0,1]    OBJ       2.1023796041628639e+01
    y[0,1]    flow_cons_inner_nodes[0]  -1
    y[0,1]    flow_cons_inner_nodes[1]  1
    y[0,1]    mccormick2[0,1]  -1
    y[0,1]    mccormick3[0,1]  -1
    y[0,2]    OBJ       7.9630396206473819e+01
    y[0,2]    flow_cons_inner_nodes[0]  -1
    y[0,2]    flow_cons_inner_nodes[2]  1
    y[0,2]    mccormick2[0,2]  -1
    y[0,2]    mccormick3[0,2]  -1
    y[0,3]    OBJ       32.2490309931942
    y[0,3]    flow_cons_inner_nodes[0]  -1
    y[0,3]    flow_cons_inner_nodes[3]  1
    y[0,3]    mccormick2[0,3]  -1
    y[0,3]    mccormick3[0,3]  -1
    y[0,5]    OBJ       1.8681541692269406e+01
    y[0,5]    flow_cons_inner_nodes[0]  -1
    y[0,5]    flow_cons_target  1
    y[0,5]    mccormick2[0,5]  -1
    y[0,5]    mccormick3[0,5]  -1
    y[1,0]    OBJ       2.1023796041628639e+01
    y[1,0]    flow_cons_inner_nodes[0]  1
    y[1,0]    flow_cons_inner_nodes[1]  -1
    y[1,0]    mccormick2[1,0]  -1
    y[1,0]    mccormick3[1,0]  -1
    y[1,2]    OBJ       5.9033888572581766e+01
    y[1,2]    flow_cons_inner_nodes[1]  -1
    y[1,2]    flow_cons_inner_nodes[2]  1
    y[1,2]    mccormick2[1,2]  -1
    y[1,2]    mccormick3[1,2]  -1
    y[1,3]    OBJ       1.1401754250991379e+01
    y[1,3]    flow_cons_inner_nodes[1]  -1
    y[1,3]    flow_cons_inner_nodes[3]  1
    y[1,3]    mccormick2[1,3]  -1
    y[1,3]    mccormick3[1,3]  -1
    y[1,4]    OBJ       7.8568441501661468e+01
    y[1,4]    flow_cons_inner_nodes[1]  -1
    y[1,4]    flow_cons_source  -1
    y[1,4]    mccormick2[1,4]  -1
    y[1,4]    mccormick3[1,4]  -1
    y[1,5]    OBJ       30.4138126514911
    y[1,5]    flow_cons_inner_nodes[1]  -1
    y[1,5]    flow_cons_target  1
    y[1,5]    mccormick2[1,5]  -1
    y[1,5]    mccormick3[1,5]  -1
    y[2,0]    OBJ       7.9630396206473819e+01
    y[2,0]    flow_cons_inner_nodes[0]  1
    y[2,0]    flow_cons_inner_nodes[2]  -1
    y[2,0]    mccormick2[2,0]  -1
    y[2,0]    mccormick3[2,0]  -1
    y[2,1]    OBJ       5.9033888572581766e+01
    y[2,1]    flow_cons_inner_nodes[1]  1
    y[2,1]    flow_cons_inner_nodes[2]  -1
    y[2,1]    mccormick2[2,1]  -1
    y[2,1]    mccormick3[2,1]  -1
    y[2,3]    OBJ       4.7634021455258214e+01
    y[2,3]    flow_cons_inner_nodes[2]  -1
    y[2,3]    flow_cons_inner_nodes[3]  1
    y[2,3]    mccormick2[2,3]  -1
    y[2,3]    mccormick3[2,3]  -1
    y[2,4]    OBJ       20
    y[2,4]    flow_cons_inner_nodes[2]  -1
    y[2,4]    flow_cons_source  -1
    y[2,4]    mccormick2[2,4]  -1
    y[2,4]    mccormick3[2,4]  -1
    y[3,0]    OBJ       32.2490309931942
    y[3,0]    flow_cons_inner_nodes[0]  1
    y[3,0]    flow_cons_inner_nodes[3]  -1
    y[3,0]    mccormick2[3,0]  -1
    y[3,0]    mccormick3[3,0]  -1
    y[3,1]    OBJ       1.1401754250991379e+01
    y[3,1]    flow_cons_inner_nodes[1]  1
    y[3,1]    flow_cons_inner_nodes[3]  -1
    y[3,1]    mccormick2[3,1]  -1
    y[3,1]    mccormick3[3,1]  -1
    y[3,2]    OBJ       4.7634021455258214e+01
    y[3,2]    flow_cons_inner_nodes[2]  1
    y[3,2]    flow_cons_inner_nodes[3]  -1
    y[3,2]    mccormick2[3,2]  -1
    y[3,2]    mccormick3[3,2]  -1
    y[3,4]    OBJ       6.7208630398186216e+01
    y[3,4]    flow_cons_inner_nodes[3]  -1
    y[3,4]    flow_cons_source  -1
    y[3,4]    mccormick2[3,4]  -1
    y[3,4]    mccormick3[3,4]  -1
    y[3,5]    OBJ       4.1048751503547585e+01
    y[3,5]    flow_cons_inner_nodes[3]  -1
    y[3,5]    flow_cons_target  1
    y[3,5]    mccormick2[3,5]  -1
    y[3,5]    mccormick3[3,5]  -1
    y[4,1]    OBJ       7.8568441501661468e+01
    y[4,1]    flow_cons_inner_nodes[1]  1
    y[4,1]    flow_cons_source  1
    y[4,1]    mccormick2[4,1]  -1
    y[4,1]    mccormick3[4,1]  -1
    y[4,2]    OBJ       20
    y[4,2]    flow_cons_inner_nodes[2]  1
    y[4,2]    flow_cons_source  1
    y[4,2]    mccormick2[4,2]  -1
    y[4,2]    mccormick3[4,2]  -1
    y[4,3]    OBJ       6.7208630398186216e+01
    y[4,3]    flow_cons_inner_nodes[3]  1
    y[4,3]    flow_cons_source  1
    y[4,3]    mccormick2[4,3]  -1
    y[4,3]    mccormick3[4,3]  -1
    y[5,0]    OBJ       1.8681541692269406e+01
    y[5,0]    flow_cons_inner_nodes[0]  1
    y[5,0]    flow_cons_target  -1
    y[5,0]    mccormick2[5,0]  -1
    y[5,0]    mccormick3[5,0]  -1
    y[5,1]    OBJ       30.4138126514911
    y[5,1]    flow_cons_inner_nodes[1]  1
    y[5,1]    flow_cons_target  -1
    y[5,1]    mccormick2[5,1]  -1
    y[5,1]    mccormick3[5,1]  -1
    y[5,3]    OBJ       4.1048751503547585e+01
    y[5,3]    flow_cons_inner_nodes[3]  1
    y[5,3]    flow_cons_target  -1
    y[5,3]    mccormick2[5,3]  -1
    y[5,3]    mccormick3[5,3]  -1
    x[0,1]    OBJ       1
    x[0,1]    primal_lower  1.5634792753107378e+00
    x[0,2]    OBJ       1
    x[0,2]    primal_lower  1.0176856602036066e+00
    x[0,3]    OBJ       1
    x[0,3]    primal_lower  1.9945051320443459e+00
    x[0,5]    OBJ       1
    x[0,5]    primal_lower  4.1172348813900257e+00
    x[1,0]    OBJ       1
    x[1,0]    primal_lower  4.3469828908132087e+00
    x[1,2]    OBJ       1
    x[1,2]    primal_lower  4.7382454018941358e+00
    x[1,3]    OBJ       1
    x[1,3]    primal_lower  2.5037069389433619e-01
    x[1,4]    OBJ       1
    x[1,4]    primal_lower  5.7768616740032808e-01
    x[1,5]    OBJ       1
    x[1,5]    primal_lower  2.0443403852390269e+00
    x[2,0]    OBJ       1
    x[2,0]    primal_lower  1.6735684369398252e+00
    x[2,1]    OBJ       1
    x[2,1]    primal_lower  4.8851512588627966e+00
    x[2,3]    OBJ       1
    x[2,3]    primal_lower  1.0312548350879880e+00
    x[2,4]    OBJ       1
    x[2,4]    primal_lower  3.9134209016389043e+00
    x[3,0]    OBJ       1
    x[3,0]    primal_lower  4.4971382568996061e+00
    x[3,1]    OBJ       1
    x[3,1]    primal_lower  1.6839231708207532e+00
    x[3,2]    OBJ       1
    x[3,2]    primal_lower  1.0453069043967866e-01
    x[3,4]    OBJ       1
    x[3,4]    primal_lower  4.2909388279658343e+00
    x[3,5]    OBJ       1
    x[3,5]    primal_lower  2.0730612409861671e+00
    x[4,1]    OBJ       1
    x[4,1]    primal_lower  4.8533756244747983e-01
    x[4,2]    OBJ       1
    x[4,2]    primal_lower  4.4277465261020330e+00
    x[4,3]    OBJ       1
    x[4,3]    primal_lower  1.7987751712436462e+00
    x[5,0]    OBJ       1
    x[5,0]    primal_lower  3.7137872666043776e+00
    x[5,1]    OBJ       1
    x[5,1]    primal_lower  4.8971009845656335e+00
    x[5,3]    OBJ       1
    x[5,3]    primal_lower  4.7394835351033116e-01
    u[0,1]    primal_lower  34
    u[0,1]    mccormick1[0,1]  -1
    u[0,1]    mccormick3[0,1]  -1
    u[0,2]    primal_lower  38
    u[0,2]    mccormick1[0,2]  -1
    u[0,2]    mccormick3[0,2]  -1
    u[0,3]    primal_lower  72
    u[0,3]    mccormick1[0,3]  -1
    u[0,3]    mccormick3[0,3]  -1
    u[0,5]    primal_lower  21
    u[0,5]    mccormick1[0,5]  -1
    u[0,5]    mccormick3[0,5]  -1
    u[1,0]    primal_lower  62
    u[1,0]    mccormick1[1,0]  -1
    u[1,0]    mccormick3[1,0]  -1
    u[1,2]    primal_lower  36
    u[1,2]    mccormick1[1,2]  -1
    u[1,2]    mccormick3[1,2]  -1
    u[1,3]    primal_lower  31
    u[1,3]    mccormick1[1,3]  -1
    u[1,3]    mccormick3[1,3]  -1
    u[1,4]    primal_lower  90
    u[1,4]    mccormick1[1,4]  -1
    u[1,4]    mccormick3[1,4]  -1
    u[1,5]    primal_lower  99
    u[1,5]    mccormick1[1,5]  -1
    u[1,5]    mccormick3[1,5]  -1
    u[2,0]    primal_lower  100
    u[2,0]    mccormick1[2,0]  -1
    u[2,0]    mccormick3[2,0]  -1
    u[2,1]    primal_lower  22
    u[2,1]    mccormick1[2,1]  -1
    u[2,1]    mccormick3[2,1]  -1
    u[2,3]    primal_lower  1
    u[2,3]    mccormick1[2,3]  -1
    u[2,3]    mccormick3[2,3]  -1
    u[2,4]    primal_lower  2
    u[2,4]    mccormick1[2,4]  -1
    u[2,4]    mccormick3[2,4]  -1
    u[3,0]    primal_lower  58
    u[3,0]    mccormick1[3,0]  -1
    u[3,0]    mccormick3[3,0]  -1
    u[3,1]    primal_lower  91
    u[3,1]    mccormick1[3,1]  -1
    u[3,1]    mccormick3[3,1]  -1
    u[3,2]    primal_lower  71
    u[3,2]    mccormick1[3,2]  -1
    u[3,2]    mccormick3[3,2]  -1
    u[3,4]    primal_lower  15
    u[3,4]    mccormick1[3,4]  -1
    u[3,4]    mccormick3[3,4]  -1
    u[3,5]    primal_lower  54
    u[3,5]    mccormick1[3,5]  -1
    u[3,5]    mccormick3[3,5]  -1
    u[4,1]    primal_lower  99
    u[4,1]    mccormick1[4,1]  -1
    u[4,1]    mccormick3[4,1]  -1
    u[4,2]    primal_lower  88
    u[4,2]    mccormick1[4,2]  -1
    u[4,2]    mccormick3[4,2]  -1
    u[4,3]    primal_lower  31
    u[4,3]    mccormick1[4,3]  -1
    u[4,3]    mccormick3[4,3]  -1
    u[5,0]    primal_lower  46
    u[5,0]    mccormick1[5,0]  -1
    u[5,0]    mccormick3[5,0]  -1
    u[5,1]    primal_lower  82
    u[5,1]    mccormick1[5,1]  -1
    u[5,1]    mccormick3[5,1]  -1
    u[5,3]    primal_lower  81
    u[5,3]    mccormick1[5,3]  -1
    u[5,3]    mccormick3[5,3]  -1
    r[0,1]    OBJ       2.1023796041628642e+00
    r[0,1]    mccormick1[0,1]  1
    r[0,1]    mccormick2[0,1]  1
    r[0,1]    mccormick3[0,1]  1
    r[0,2]    OBJ       7.9630396206473826e+00
    r[0,2]    mccormick1[0,2]  1
    r[0,2]    mccormick2[0,2]  1
    r[0,2]    mccormick3[0,2]  1
    r[0,3]    OBJ       3.2249030993194197e+00
    r[0,3]    mccormick1[0,3]  1
    r[0,3]    mccormick2[0,3]  1
    r[0,3]    mccormick3[0,3]  1
    r[0,5]    OBJ       1.8681541692269406e+00
    r[0,5]    mccormick1[0,5]  1
    r[0,5]    mccormick2[0,5]  1
    r[0,5]    mccormick3[0,5]  1
    r[1,0]    OBJ       2.1023796041628642e+00
    r[1,0]    mccormick1[1,0]  1
    r[1,0]    mccormick2[1,0]  1
    r[1,0]    mccormick3[1,0]  1
    r[1,2]    OBJ       5.9033888572581770e+00
    r[1,2]    mccormick1[1,2]  1
    r[1,2]    mccormick2[1,2]  1
    r[1,2]    mccormick3[1,2]  1
    r[1,3]    OBJ       1.1401754250991381e+00
    r[1,3]    mccormick1[1,3]  1
    r[1,3]    mccormick2[1,3]  1
    r[1,3]    mccormick3[1,3]  1
    r[1,4]    OBJ       7.8568441501661468e+00
    r[1,4]    mccormick1[1,4]  1
    r[1,4]    mccormick2[1,4]  1
    r[1,4]    mccormick3[1,4]  1
    r[1,5]    OBJ       3.04138126514911
    r[1,5]    mccormick1[1,5]  1
    r[1,5]    mccormick2[1,5]  1
    r[1,5]    mccormick3[1,5]  1
    r[2,0]    OBJ       7.9630396206473826e+00
    r[2,0]    mccormick1[2,0]  1
    r[2,0]    mccormick2[2,0]  1
    r[2,0]    mccormick3[2,0]  1
    r[2,1]    OBJ       5.9033888572581770e+00
    r[2,1]    mccormick1[2,1]  1
    r[2,1]    mccormick2[2,1]  1
    r[2,1]    mccormick3[2,1]  1
    r[2,3]    OBJ       4.7634021455258218e+00
    r[2,3]    mccormick1[2,3]  1
    r[2,3]    mccormick2[2,3]  1
    r[2,3]    mccormick3[2,3]  1
    r[2,4]    OBJ       2
    r[2,4]    mccormick1[2,4]  1
    r[2,4]    mccormick2[2,4]  1
    r[2,4]    mccormick3[2,4]  1
    r[3,0]    OBJ       3.2249030993194197e+00
    r[3,0]    mccormick1[3,0]  1
    r[3,0]    mccormick2[3,0]  1
    r[3,0]    mccormick3[3,0]  1
    r[3,1]    OBJ       1.1401754250991381e+00
    r[3,1]    mccormick1[3,1]  1
    r[3,1]    mccormick2[3,1]  1
    r[3,1]    mccormick3[3,1]  1
    r[3,2]    OBJ       4.7634021455258218e+00
    r[3,2]    mccormick1[3,2]  1
    r[3,2]    mccormick2[3,2]  1
    r[3,2]    mccormick3[3,2]  1
    r[3,4]    OBJ       6.7208630398186218e+00
    r[3,4]    mccormick1[3,4]  1
    r[3,4]    mccormick2[3,4]  1
    r[3,4]    mccormick3[3,4]  1
    r[3,5]    OBJ       4.1048751503547587e+00
    r[3,5]    mccormick1[3,5]  1
    r[3,5]    mccormick2[3,5]  1
    r[3,5]    mccormick3[3,5]  1
    r[4,1]    OBJ       7.8568441501661468e+00
    r[4,1]    mccormick1[4,1]  1
    r[4,1]    mccormick2[4,1]  1
    r[4,1]    mccormick3[4,1]  1
    r[4,2]    OBJ       2
    r[4,2]    mccormick1[4,2]  1
    r[4,2]    mccormick2[4,2]  1
    r[4,2]    mccormick3[4,2]  1
    r[4,3]    OBJ       6.7208630398186218e+00
    r[4,3]    mccormick1[4,3]  1
    r[4,3]    mccormick2[4,3]  1
    r[4,3]    mccormick3[4,3]  1
    r[5,0]    OBJ       1.8681541692269406e+00
    r[5,0]    mccormick1[5,0]  1
    r[5,0]    mccormick2[5,0]  1
    r[5,0]    mccormick3[5,0]  1
    r[5,1]    OBJ       3.04138126514911
    r[5,1]    mccormick1[5,1]  1
    r[5,1]    mccormick2[5,1]  1
    r[5,1]    mccormick3[5,1]  1
    r[5,3]    OBJ       4.1048751503547587e+00
    r[5,3]    mccormick1[5,3]  1
    r[5,3]    mccormick2[5,3]  1
    r[5,3]    mccormick3[5,3]  1
    MARKER    'MARKER'                 'INTEND'
RHS
    RHS1      flow_cons_source  1
    RHS1      flow_cons_target  1
    RHS1      primal_lower  120
    RHS1      mccormick3[0,1]  -1
    RHS1      mccormick3[0,2]  -1
    RHS1      mccormick3[0,3]  -1
    RHS1      mccormick3[0,5]  -1
    RHS1      mccormick3[1,0]  -1
    RHS1      mccormick3[1,2]  -1
    RHS1      mccormick3[1,3]  -1
    RHS1      mccormick3[1,4]  -1
    RHS1      mccormick3[1,5]  -1
    RHS1      mccormick3[2,0]  -1
    RHS1      mccormick3[2,1]  -1
    RHS1      mccormick3[2,3]  -1
    RHS1      mccormick3[2,4]  -1
    RHS1      mccormick3[3,0]  -1
    RHS1      mccormick3[3,1]  -1
    RHS1      mccormick3[3,2]  -1
    RHS1      mccormick3[3,4]  -1
    RHS1      mccormick3[3,5]  -1
    RHS1      mccormick3[4,1]  -1
    RHS1      mccormick3[4,2]  -1
    RHS1      mccormick3[4,3]  -1
    RHS1      mccormick3[5,0]  -1
    RHS1      mccormick3[5,1]  -1
    RHS1      mccormick3[5,3]  -1
BOUNDS
 BV BND1      y[0,1]  
 BV BND1      y[0,2]  
 BV BND1      y[0,3]  
 BV BND1      y[0,5]  
 BV BND1      y[1,0]  
 BV BND1      y[1,2]  
 BV BND1      y[1,3]  
 BV BND1      y[1,4]  
 BV BND1      y[1,5]  
 BV BND1      y[2,0]  
 BV BND1      y[2,1]  
 BV BND1      y[2,3]  
 BV BND1      y[2,4]  
 BV BND1      y[3,0]  
 BV BND1      y[3,1]  
 BV BND1      y[3,2]  
 BV BND1      y[3,4]  
 BV BND1      y[3,5]  
 BV BND1      y[4,1]  
 BV BND1      y[4,2]  
 BV BND1      y[4,3]  
 BV BND1      y[5,0]  
 BV BND1      y[5,1]  
 BV BND1      y[5,3]  
 BV BND1      x[0,1]  
 BV BND1      x[0,2]  
 BV BND1      x[0,3]  
 BV BND1      x[0,5]  
 BV BND1      x[1,0]  
 BV BND1      x[1,2]  
 BV BND1      x[1,3]  
 BV BND1      x[1,4]  
 BV BND1      x[1,5]  
 BV BND1      x[2,0]  
 BV BND1      x[2,1]  
 BV BND1      x[2,3]  
 BV BND1      x[2,4]  
 BV BND1      x[3,0]  
 BV BND1      x[3,1]  
 BV BND1      x[3,2]  
 BV BND1      x[3,4]  
 BV BND1      x[3,5]  
 BV BND1      x[4,1]  
 BV BND1      x[4,2]  
 BV BND1      x[4,3]  
 BV BND1      x[5,0]  
 BV BND1      x[5,1]  
 BV BND1      x[5,3]  
 BV BND1      u[0,1]  
 BV BND1      u[0,2]  
 BV BND1      u[0,3]  
 BV BND1      u[0,5]  
 BV BND1      u[1,0]  
 BV BND1      u[1,2]  
 BV BND1      u[1,3]  
 BV BND1      u[1,4]  
 BV BND1      u[1,5]  
 BV BND1      u[2,0]  
 BV BND1      u[2,1]  
 BV BND1      u[2,3]  
 BV BND1      u[2,4]  
 BV BND1      u[3,0]  
 BV BND1      u[3,1]  
 BV BND1      u[3,2]  
 BV BND1      u[3,4]  
 BV BND1      u[3,5]  
 BV BND1      u[4,1]  
 BV BND1      u[4,2]  
 BV BND1      u[4,3]  
 BV BND1      u[5,0]  
 BV BND1      u[5,1]  
 BV BND1      u[5,3]  
 BV BND1      r[0,1]  
 BV BND1      r[0,2]  
 BV BND1      r[0,3]  
 BV BND1      r[0,5]  
 BV BND1      r[1,0]  
 BV BND1      r[1,2]  
 BV BND1      r[1,3]  
 BV BND1      r[1,4]  
 BV BND1      r[1,5]  
 BV BND1      r[2,0]  
 BV BND1      r[2,1]  
 BV BND1      r[2,3]  
 BV BND1      r[2,4]  
 BV BND1      r[3,0]  
 BV BND1      r[3,1]  
 BV BND1      r[3,2]  
 BV BND1      r[3,4]  
 BV BND1      r[3,5]  
 BV BND1      r[4,1]  
 BV BND1      r[4,2]  
 BV BND1      r[4,3]  
 BV BND1      r[5,0]  
 BV BND1      r[5,1]  
 BV BND1      r[5,3]  
ENDATA
