instances/shortest_path/discrete_knapsack_uncertainty/nohadani_6_12.kp
99766
120

[1.5634792753107378 1.0176856602036066 1.9945051320443459 4.117234881390026 4.346982890813209 4.738245401894136 0.2503706938943362 0.5776861674003281 2.044340385239027 1.6735684369398252 4.8851512588627966 1.031254835087988 3.9134209016389043 4.497138256899606 1.6839231708207532 0.10453069043967866 4.290938827965834 2.073061240986167 0.48533756244747983 4.427746526102033 1.7987751712436462 3.7137872666043776 4.8971009845656335 0.47394835351033116]

[34 38 72 21 62 36 31 90 99 100 22 1 2 58 91 71 15 54 99 88 31 46 82 81]
